\ This file was automatically generated by Zimpl
\ var T integer;
\ var N integer;
\ var P integer;
\ var A integer;
\ maximize profit:    5000 * T + 8500 * N + 2400 * P + 2800 * A;
\ subto radio_constraint:     290 * P + 380 * A <= 1800;
\ subto budget_constraint:   800 * T + 925 * N + 290 * P + 380 * A <= 8000;
\ subto radio_size_constraint:     P + A >= 5;
\ subto tv_constraint:     T <= 12;
\ subto NP_constraint:     N <= 5;
\ subto RP_constraint:     P <= 25;
\ subto RA_constraint:     A <= 20;
\Problem name: Advertisingproblem.zpl
Maximize
 profit:  +5000 T +8500 N +2400 P +2800 A
Subject to
 radio_constrai@0:
  +380 A +290 P <= 1800
 budget_constra@1:
  +380 A +290 P +925 N +800 T <= 8000
 radio_size_con@2:
  + A + P >= 5
 tv_constraint_1:
  + T <= 12
 NP_constraint_1:
  + N <= 5
 RP_constraint_1:
  + P <= 25
 RA_constraint_1:
  + A <= 20
Bounds
 0 <= T <= +inf
 0 <= N <= +inf
 0 <= P <= +inf
 0 <= A <= +inf
General
 T
 N
 P
 A
End
